Maximize
  0.000227405 Z_565_0_0 + 0.00394192890658223 Z_565_0_1
   + 0.8666638584819589 Z_565_0_2 + 7.6106067165459927e-04 Z_565_0_3
   + 0.0284057469273138 Z_565_0_4 + 0.0129925945173163 Z_360_0_0
   + 0.5157153866028057 Z_360_0_1 + 0.00773240251434132 Z_360_0_2
   + 0.0210994916882343 Z_360_0_3 + 0.3424601246773025 Z_360_0_4
Subject To
 constraint1_5650: Z_565_0_0 + Z_565_0_1 + Z_565_0_2 + Z_565_0_3
   + Z_565_0_4 <= 1
 constraint1_3600: Z_360_0_0 + Z_360_0_1 + Z_360_0_2 + Z_360_0_3
   + Z_360_0_4 <= 1
 constraint2_5650: Z_565_0_0 <= 1
 constraint2_5651: Z_565_0_1 <= 1
 constraint2_5652: Z_565_0_2 <= 1
 constraint2_5653: Z_565_0_3 <= 1
 constraint2_3600: Z_360_0_0 <= 1
 constraint2_3601: Z_360_0_1 <= 1
 constraint2_3602: Z_360_0_2 <= 1
 constraint2_3603: Z_360_0_3 <= 1
Bounds
Binaries
 Z_565_0_0 Z_565_0_1 Z_565_0_2 Z_565_0_3 Z_565_0_4 Z_360_0_0 Z_360_0_1
 Z_360_0_2 Z_360_0_3 Z_360_0_4
End
